Instance name : DPDPTW_V_bar-n100-1_fixed
Authors : 
Date : 
Reference 
Solution
Route 1 : 31 40 12 21 81 62 19 71 38 44 88 94 69 90 
Route 2 : 20 28 49 70 78 99 
Route 3 : 23 1 73 51 11 61 
Route 4 : 15 30 80 35 10 14 64 43 65 85 60 7 57 93 8 58 
Route 5 : 26 76 34 2 29 84 52 3 22 79 4 72 54 53 
Route 6 : 17 67 24 74 18 25 68 46 75 37 96 87 
Route 7 : 13 42 63 92 45 47 97 32 82 36 48 98 95 6 56 86 
Route 8 : 5 55 41 16 66 39 33 27 77 89 83 91 9 59 50 100 
